p wcnf 136 68 69 
1 81 5 0 
1 93 110 0 
1 -117 -76 0 
1 -79 -107 0 
1 78 10 0 
1 57 -10 0 
1 76 -55 0 
1 37 12 0 
1 5 132 0 
1 4 71 0 
1 -67 118 0 
1 -67 -133 0 
1 75 57 0 
1 113 119 0 
1 101 -80 0 
1 93 55 0 
1 88 -29 0 
1 49 -86 0 
1 133 -2 0 
1 16 -136 0 
1 20 107 0 
1 -59 -36 0 
1 101 -73 0 
1 -49 44 0 
1 117 -24 0 
1 -102 47 0 
1 26 -2 0 
1 98 33 0 
1 53 97 0 
1 -18 13 0 
1 -126 124 0 
1 -130 44 0 
1 -115 -108 0 
1 17 61 0 
1 58 -90 0 
1 -99 10 0 
1 -73 63 0 
1 19 -20 0 
1 38 66 0 
1 -127 37 0 
1 -120 40 0 
1 21 -134 0 
1 19 7 0 
1 -101 18 0 
1 -57 -45 0 
1 89 -128 0 
1 -109 82 0 
1 -130 -58 0 
1 -106 -31 0 
1 -38 -43 0 
1 112 -44 0 
1 48 -15 0 
1 -81 -39 0 
1 -103 53 0 
1 -57 -1 0 
1 95 72 0 
1 -22 107 0 
1 136 -60 0 
1 -52 95 0 
1 -108 -123 0 
1 133 92 0 
1 -98 -75 0 
1 -64 95 0 
1 -50 -71 0 
1 -110 -14 0 
1 -124 -49 0 
1 -5 -109 0 
1 -24 14 0 
